Traveling Salesman Problem/TSP_generados/Aleatorio1621103311_9.tsp
NAME: Aleatorio1621103311_9.tsp
COMMENT: Randomly generated scenario
TYPE: TSP
DIMENSION: 9
EDGE_WEIGHT_TYPE: ATT
NODE_COORD_SECTION
1 17.41 21.97
2 24.71 21.11
3 40.65 16.54
4 22.75 2.97
5 41.53 42.4
6 4.04 49.38
7 5.44 42.48
8 1.05 32.84
9 43.88 16.15
