Traveling Salesman Problem/TSP_generados/Aleatorio1621103311_9.opt.tour
NAME: Aleatorio1621103311_9.opt.tour
COMMENT: Optimal solution for Aleatorio1621103311_9 (153.07613077735903)
TYPE: TOUR
DIMENSION: 9
TOUR_SECTION
1 2 4 3 9 5 6 7 8
-1
EOF
